399 400 401 405 
444 445 446 450 
473 474 475 479 
504 505 506 510 
535 536 537 541 
561 562 563 567 
591 592 593 597 
621 622 623 627 
651 652 653 657 
681 682 683 687 
711 712 713 717 
741 742 743 747 
771 772 773 777 
801 802 803 807 
831 832 833 837 
861 862 863 867 
891 892 893 897 
921 922 923 927 
951 952 953 957 
982 983 984 988 
1011 1012 1013 1017 
1044 1045 1046 1050 
1079 1080 1081 1085 
1138 1139 1140 1144 
1198 1199 1200 1204 
1256 1257 1258 1262 
1316 1317 1318 1322 
1376 1377 1378 1382 
1436 1437 1438 1442 
